%chk=ACN-DON-C22.chk
%nproc=8
%mem=8GB
# HF/6-31G* Opt=(Z-matrix,MaxCycles=100) Geom=PrintInputOrient

<qmtool> simtype="Geometry optimization" </qmtool>
ACN-DON-C22

3 6
C1 -2.2750000953674316 4.883999824523926 0.17399999499320984
N2 -2.688999891281128 2.5230000019073486 0.5479999780654907
O3 -0.8519999980926514 3.128000020980835 -0.5339999794960022
C4 -1.8869999647140503 3.441999912261963 0.03799999877810478
N5 -3.01200008392334 -2.430000066757202 -0.7020000219345093
O6 -6.327000141143799 -2.9030001163482666 -1.937000036239624
C7 -4.068999767303467 2.306999921798706 0.006000000052154064
N8 3.1540000438690186 -2.4110000133514404 0.6060000061988831
O9 -4.421000003814697 -2.9809999465942383 -2.9260001182556152
C10 -4.804999828338623 1.0759999752044678 0.45399999618530273
N11 2.5840001106262207 2.4590001106262207 -0.3720000088214874
O12 -2.23799991607666 -4.438000202178955 0.027000000700354576
C13 -4.307000160217285 -0.10499999672174454 -0.382999986410141
O14 2.240999937057495 -4.316999912261963 -0.22699999809265137
C15 -4.913000106811523 -1.437000036239624 0.23600000143051147
O16 1.1619999408721924 3.359999895095825 1.1080000400543213
C17 -4.414999961853027 -2.6549999713897705 -0.4790000021457672
O18 1.8029999732971191 1.4249999523162842 -0.5040000081062317
C19 -5.072000026702881 -2.865999937057495 -1.8669999837875366
O20 4.986999988555908 -4.142000198364258 1.5199999809265137
C21 -2.0369999408721924 -3.309000015258789 -0.4189999997615814
O22 6.38100004196167 -3.802000045776367 -0.17299999296665192
C23 -0.5989999771118164 -2.74399995803833 -0.6809999942779541
O24 -1.5499999523162842 -0.5230000019073486 1.2289999723434448
C25 -0.017000000923871994 -2.118000030517578 0.6510000228881836
O26 -1.399999976158142 -2.200000047683716 2.5759999752044678
C27 0.9419999718666077 -3.119999885559082 1.3639999628067017
O28 0.6629999876022339 -0.9869999885559082 0.25999999046325684
C29 2.203000068664551 -3.3450000286102295 0.48100000619888306
O30 -2.2720000743865967 1.805999994277954 1.5490000247955322
C31 4.400000095367432 -2.4489998817443848 -0.12999999523162842
C32 5.011000156402588 -1.090999960899353 -0.06599999964237213
C33 4.052000045776367 -0.024000000208616257 -0.6069999933242798
C34 4.732999801635742 1.3020000457763672 -0.48899999260902405
C35 3.8929998874664307 2.4049999713897705 -0.9919999837875366
C36 2.1040000915527344 3.5290000438690186 0.32499998807907104
C37 2.632999897003174 4.920000076293945 0.06300000101327896
C38 5.316999912261963 -3.5369999408721924 0.43299999833106995
C39 -1.0720000267028809 -1.5700000524520874 1.5509999990463257
H40 -2.7139999866485596 5.067999839782715 1.1770000457763672
H41 -3.0250000953674316 5.135000228881836 -0.6029999852180481
H42 -1.3839999437332153 5.5329999923706055 0.041999999433755875
H43 -2.819000005722046 -1.6759999990463257 -1.305999994277954
H44 -4.073999881744385 2.3910000324249268 -1.1039999723434448
H45 -4.695000171661377 3.1600000858306885 0.375
H46 3.3399999141693115 -2.2339999675750732 1.565000057220459
H47 -5.901000022888184 1.190000057220459 0.28600001335144043
H48 -4.6539998054504395 0.8859999775886536 1.5379999876022339
H49 -3.2070000171661377 -0.0729999989271164 -0.367000013589859
H50 -4.644999980926514 -0.017999999225139618 -1.437000036239624
H51 -6.02400016784668 -1.3990000486373901 0.23499999940395355
H52 -4.566999912261963 -1.4910000562667847 1.2940000295639038
H53 -4.610000133514404 -3.571000099182129 0.125
H54 1.9199999570846558 1.2410000562667847 -1.4559999704360962
H55 -0.7170000076293945 -1.9950000047683716 -1.4839999675750732
H56 0.008999999612569809 -3.5810000896453857 -1.062999963760376
H57 0.414000004529953 -4.085999965667725 1.4850000143051147
H58 1.2589999437332153 -2.75 2.3559999465942383
H59 1.2359999418258667 -1.3660000562667847 -0.4339999854564667
H60 -2.9800000190734863 1.9129999876022339 2.2079999446868896
H61 4.191999912261963 -2.7190001010894775 -1.1929999589920044
H62 5.951000213623047 -1.0789999961853027 -0.6669999957084656
H63 5.294000148773193 -0.843999981880188 0.9850000143051147
H64 3.244999885559082 -0.10100000351667404 0.14000000059604645
H65 3.7070000171661377 -0.2709999978542328 -1.6339999437332153
H66 5.695000171661377 1.2829999923706055 -1.0570000410079956
H67 4.988999843597412 1.496000051498413 0.5799999833106995
H68 4.4710001945495605 3.3519999980926514 -0.8579999804496765
H69 3.757999897003174 2.2850000858306885 -2.0959999561309814
H70 2.703000068664551 5.098999977111816 -1.031000018119812
H71 3.627000093460083 5.048999786376953 0.5339999794960022
H72 1.934000015258789 5.666999816894531 0.49799999594688416
Fe73 0.008999999612569809 1.3669999837875366 0.8500000238418579
 Ow      C39     rAH      O24   90.12      C25  -90.19
  x       Ow     1.0      C39   90.00      O24     dih
H1w       Ow  0.9572      C39  127.74        x    0.00
H2w       Ow  0.9572      C39  127.74        x  180.00

rAH  2.0
dih  0.0
